(set-logic BV) (define-fun origCir ((n224 Bool) (n325 Bool) (n254 Bool) (n207 Bool) (i56 Bool)) Bool (xor (and (xor n325 (not (and n254 n207))) n224) i56)) (synth-fun skel ((n224 Bool) (n325 Bool) (n254 Bool) (n207 Bool) (i56 Bool)) Bool) (declare-var n224 Bool) (declare-var n325 Bool) (declare-var n254 Bool) (declare-var n207 Bool) (declare-var i56 Bool) (constraint (= (origCir n224 n325 n254 n207 i56) (skel n224 n325 n254 n207 i56))) (check-synth)
